
******************************************************************************
This program contains Ipopt, a library for large-scale nonlinear optimization.
 Ipopt is released as open source code under the Eclipse Public License (EPL).
         For more information visit http://projects.coin-or.org/Ipopt
******************************************************************************

This is Ipopt version 3.12.6, running with linear solver ma57.

Number of nonzeros in equality constraint Jacobian...:        0
Number of nonzeros in inequality constraint Jacobian.:        0
Number of nonzeros in Lagrangian Hessian.............:        3

Total number of variables............................:        2
                     variables with only lower bounds:        0
                variables with lower and upper bounds:        0
                     variables with only upper bounds:        0
Total number of equality constraints.................:        0
Total number of inequality constraints...............:        0
        inequality constraints with only lower bounds:        0
   inequality constraints with lower and upper bounds:        0
        inequality constraints with only upper bounds:        0

iter    objective    inf_pr   inf_du lg(mu)  ||d||  lg(rg) alpha_du alpha_pr  ls
   0  2.5614335e+04 0.00e+00 6.89e+01  -1.0 0.00e+00    -  0.00e+00 0.00e+00   0
   1  2.5613611e+04 0.00e+00 7.03e+01  -1.0 7.12e-03   4.0 1.00e+00 1.00e+00f  1
   2  2.5611273e+04 0.00e+00 6.30e+01  -1.0 2.16e-02   3.5 1.00e+00 1.00e+00f  1
   3  2.5607077e+04 0.00e+00 5.22e+01  -1.0 4.67e-02   3.0 1.00e+00 1.00e+00f  1
   4  2.5588128e+04 0.00e+00 4.76e+01  -1.0 1.98e-01   2.6 1.00e+00 1.00e+00f  1
   5  2.5585324e+04 0.00e+00 5.02e+01  -1.0 4.04e-02   3.0 1.00e+00 1.00e+00f  1
   6  2.5583544e+04 0.00e+00 6.40e+01  -1.0 2.35e-02   3.4 1.00e+00 1.00e+00f  1
   7  2.5559292e+04 0.00e+00 5.84e+01  -1.0 2.47e-01   2.9 1.00e+00 1.00e+00f  1
   8  2.5556617e+04 0.00e+00 5.44e+01  -1.0 2.78e-02   3.4 1.00e+00 1.00e+00f  1
   9  2.5551154e+04 0.00e+00 5.88e+01  -1.0 6.90e-02   2.9 1.00e+00 1.00e+00f  1
iter    objective    inf_pr   inf_du lg(mu)  ||d||  lg(rg) alpha_du alpha_pr  ls
  10  2.5548093e+04 0.00e+00 5.06e+01  -1.0 3.14e-02   3.3 1.00e+00 1.00e+00f  1
  11  1.2752768e+04 0.00e+00 5.98e+01  -1.0 5.08e+02    -  1.00e+00 1.00e+00f  1
  12  1.2750888e+04 0.00e+00 3.17e+01  -1.0 4.26e-02   2.8 1.00e+00 1.00e+00f  1
  13  1.2750428e+04 0.00e+00 3.11e+01  -1.0 1.49e-02   3.3 1.00e+00 1.00e+00f  1
  14  1.2746478e+04 0.00e+00 6.98e+01  -1.0 7.46e-02   2.8 1.00e+00 1.00e+00f  1
  15  1.2743983e+04 0.00e+00 4.74e+01  -1.0 4.08e-02   3.2 1.00e+00 1.00e+00f  1
  16  1.2742666e+04 0.00e+00 3.09e+01  -1.0 3.58e-02   2.7 1.00e+00 1.00e+00f  1
  17  1.2741906e+04 0.00e+00 3.86e+01  -1.0 2.18e-02   3.2 1.00e+00 1.00e+00f  1
  18  1.2741378e+04 0.00e+00 4.66e+01  -1.0 1.18e-02   3.6 1.00e+00 1.00e+00f  1
  19  1.2736384e+04 0.00e+00 5.15e+01  -1.0 8.13e-02   3.1 1.00e+00 1.00e+00f  1
iter    objective    inf_pr   inf_du lg(mu)  ||d||  lg(rg) alpha_du alpha_pr  ls
  20  1.2733837e+04 0.00e+00 4.13e+01  -1.0 6.12e-02   2.6 1.00e+00 1.00e+00f  1
  21  1.2730095e+04 0.00e+00 5.15e+01  -1.0 6.39e-02   3.1 1.00e+00 1.00e+00f  1
  22  1.2723095e+04 0.00e+00 6.21e+01  -1.0 1.46e-01   2.6 1.00e+00 1.00e+00f  1
  23  1.2719146e+04 0.00e+00 3.34e+01  -1.0 7.66e-02   3.0 1.00e+00 1.00e+00f  1
  24  1.2708694e+04 0.00e+00 5.04e+01  -1.0 3.85e-01   2.5 1.00e+00 1.00e+00f  1
  25  1.2681962e+04 0.00e+00 5.04e+01  -1.0 5.30e-01   2.1 1.00e+00 1.00e+00f  1
  26  1.2606616e+04 0.00e+00 4.80e+01  -1.0 1.50e+00   1.6 1.00e+00 1.00e+00f  1
  27  1.2602344e+04 0.00e+00 5.02e+01  -1.0 8.05e-02   2.9 1.00e+00 1.00e+00f  1
  28  1.2593044e+04 0.00e+00 5.00e+01  -1.0 1.85e-01   2.4 1.00e+00 1.00e+00f  1
  29  1.2560368e+04 0.00e+00 3.48e+01  -1.0 6.67e-01   2.0 1.00e+00 1.00e+00f  1
iter    objective    inf_pr   inf_du lg(mu)  ||d||  lg(rg) alpha_du alpha_pr  ls
  30  1.2559295e+04 0.00e+00 5.24e+01  -1.0 2.48e-02   3.3 1.00e+00 1.00e+00f  1
  31  1.2558602e+04 0.00e+00 6.13e+01  -1.0 1.21e-02   3.7 1.00e+00 1.00e+00f  1
  32  1.2554814e+04 0.00e+00 5.45e+01  -1.0 5.79e-02   3.2 1.00e+00 1.00e+00f  1
  33  1.2553167e+04 0.00e+00 3.06e+01  -1.0 4.09e-02   2.8 1.00e+00 1.00e+00f  1
  34  1.2552564e+04 0.00e+00 3.40e+01  -1.0 1.88e-02   3.2 1.00e+00 1.00e+00f  1
  35  1.2552205e+04 0.00e+00 3.93e+01  -1.0 9.46e-03   3.6 1.00e+00 1.00e+00f  1
  36  1.2548774e+04 0.00e+00 6.34e+01  -1.0 5.70e-02   3.1 1.00e+00 1.00e+00f  1
  37  1.2516100e+04 0.00e+00 5.21e+01  -1.0 7.15e-01   2.7 1.00e+00 1.00e+00f  1
  38  1.2496797e+04 0.00e+00 4.65e+01  -1.0 4.02e-01   2.2 1.00e+00 1.00e+00f  1
  39  1.2495745e+04 0.00e+00 5.94e+01  -1.0 1.89e-02   3.5 1.00e+00 1.00e+00f  1
iter    objective    inf_pr   inf_du lg(mu)  ||d||  lg(rg) alpha_du alpha_pr  ls
  40  1.2489361e+04 0.00e+00 4.01e+01  -1.0 1.30e-01   3.0 1.00e+00 1.00e+00f  1
  41  1.2488478e+04 0.00e+00 5.42e+01  -1.0 1.86e-02   3.5 1.00e+00 1.00e+00f  1
  42  1.2473575e+04 0.00e+00 4.16e+01  -1.0 2.98e-01   3.0 1.00e+00 1.00e+00f  1
  43  1.2472405e+04 0.00e+00 5.92e+01  -1.0 2.31e-02   3.4 1.00e+00 1.00e+00f  1
  44  1.2449870e+04 0.00e+00 4.36e+01  -1.0 4.43e-01   2.9 1.00e+00 1.00e+00f  1
  45  1.2448492e+04 0.00e+00 5.19e+01  -1.0 2.42e-02   3.4 1.00e+00 1.00e+00f  1
  46  1.2443257e+04 0.00e+00 4.61e+01  -1.0 1.00e-01   2.9 1.00e+00 1.00e+00f  1
  47  1.2414330e+04 0.00e+00 5.89e+01  -1.0 5.79e-01   2.4 1.00e+00 1.00e+00f  1
  48  1.2411613e+04 0.00e+00 3.09e+01  -1.0 6.43e-02   2.8 1.00e+00 1.00e+00f  1
  49  1.2410894e+04 0.00e+00 3.97e+01  -1.0 1.95e-02   3.2 1.00e+00 1.00e+00f  1
iter    objective    inf_pr   inf_du lg(mu)  ||d||  lg(rg) alpha_du alpha_pr  ls
  50  1.2410443e+04 0.00e+00 4.63e+01  -1.0 9.69e-03   3.7 1.00e+00 1.00e+00f  1
  51  1.2407144e+04 0.00e+00 6.10e+01  -1.0 5.28e-02   3.2 1.00e+00 1.00e+00f  1
  52  1.2400008e+04 0.00e+00 5.20e+01  -1.0 1.41e-01   2.7 1.00e+00 1.00e+00f  1
  53  1.2346465e+04 0.00e+00 5.00e+01  -1.0 1.07e+00   2.2 1.00e+00 1.00e+00f  1
  54  1.2075876e+04 0.00e+00 4.69e+01  -1.0 5.49e+00   1.8 1.00e+00 1.00e+00f  1
  55  1.2072704e+04 0.00e+00 5.15e+01  -1.0 5.57e-02   3.1 1.00e+00 1.00e+00f  1
  56  1.2066403e+04 0.00e+00 6.79e+01  -1.0 1.40e-01   2.6 1.00e+00 1.00e+00f  1
  57  1.2062382e+04 0.00e+00 3.04e+01  -1.0 7.60e-02   3.0 1.00e+00 1.00e+00f  1
  58  1.2060769e+04 0.00e+00 4.77e+01  -1.0 4.65e-02   2.6 1.00e+00 1.00e+00f  1
  59  1.2047491e+04 0.00e+00 3.98e+01  -1.0 2.51e-01   3.0 1.00e+00 1.00e+00f  1
iter    objective    inf_pr   inf_du lg(mu)  ||d||  lg(rg) alpha_du alpha_pr  ls
  60  1.2045403e+04 0.00e+00 4.46e+01  -1.0 4.76e-02   2.5 1.00e+00 1.00e+00f  1
  61  1.2041100e+04 0.00e+00 4.91e+01  -1.0 8.10e-02   2.9 1.00e+00 1.00e+00f  1
  62  1.2032858e+04 0.00e+00 4.92e+01  -1.0 1.68e-01   2.5 1.00e+00 1.00e+00f  1
  63  1.2014663e+04 0.00e+00 4.26e+01  -1.0 3.85e-01   2.0 1.00e+00 1.00e+00f  1
  64  1.2012976e+04 0.00e+00 5.59e+01  -1.0 2.90e-02   3.3 1.00e+00 1.00e+00f  1
  65  1.2004257e+04 0.00e+00 6.87e+01  -1.0 1.79e-01   2.8 1.00e+00 1.00e+00f  1
  66  1.2001957e+04 0.00e+00 5.05e+01  -1.0 3.70e-02   3.3 1.00e+00 1.00e+00f  1
  67  1.2000588e+04 0.00e+00 2.96e+01  -1.0 3.60e-02   2.8 1.00e+00 1.00e+00f  1
  68  1.2000094e+04 0.00e+00 3.13e+01  -1.0 1.65e-02   3.2 1.00e+00 1.00e+00f  1
  69  1.1999834e+04 0.00e+00 3.48e+01  -1.0 7.78e-03   3.6 1.00e+00 1.00e+00f  1
iter    objective    inf_pr   inf_du lg(mu)  ||d||  lg(rg) alpha_du alpha_pr  ls
  70  1.1997874e+04 0.00e+00 6.10e+01  -1.0 3.88e-02   3.2 1.00e+00 1.00e+00f  1
  71  1.1996699e+04 0.00e+00 6.59e+01  -1.0 1.80e-02   3.6 1.00e+00 1.00e+00f  1
  72  1.1993563e+04 0.00e+00 3.90e+01  -1.0 5.58e-02   3.1 1.00e+00 1.00e+00f  1
  73  1.1992274e+04 0.00e+00 3.43e+01  -1.0 3.71e-02   2.6 1.00e+00 1.00e+00f  1
  74  1.1989422e+04 0.00e+00 5.26e+01  -1.0 5.01e-02   3.1 1.00e+00 1.00e+00f  1
  75  1.1976275e+04 0.00e+00 4.14e+01  -1.0 2.78e-01   2.6 1.00e+00 1.00e+00f  1
  76  1.1971083e+04 0.00e+00 4.89e+01  -1.0 9.27e-02   3.0 1.00e+00 1.00e+00f  1
  77  7.9332954e+03 0.00e+00 2.41e+01  -1.0 9.10e+01    -  1.00e+00 1.00e+00f  1
  78  7.9329997e+03 0.00e+00 3.07e+01  -1.0 1.08e-02   3.4 1.00e+00 1.00e+00f  1
  79  7.9262833e+03 0.00e+00 3.51e+01  -1.0 1.57e-01   3.0 1.00e+00 1.00e+00f  1
iter    objective    inf_pr   inf_du lg(mu)  ||d||  lg(rg) alpha_du alpha_pr  ls
  80  7.9254166e+03 0.00e+00 4.12e+01  -1.0 1.78e-02   3.4 1.00e+00 1.00e+00f  1
  81  7.9222121e+03 0.00e+00 3.99e+01  -1.0 7.24e-02   2.9 1.00e+00 1.00e+00f  1
  82  7.9180900e+03 0.00e+00 4.25e+01  -1.0 1.06e-01   2.4 1.00e+00 1.00e+00f  1
  83  7.9153719e+03 0.00e+00 3.72e+01  -1.0 6.61e-02   2.9 1.00e+00 1.00e+00f  1
  84  7.9096050e+03 0.00e+00 3.86e+01  -1.0 1.44e-01   2.4 1.00e+00 1.00e+00f  1
  85  7.9084703e+03 0.00e+00 2.05e+01  -1.0 4.40e-02   1.9 1.00e+00 1.00e+00f  1
  86  7.9081437e+03 0.00e+00 2.61e+01  -1.0 1.37e-02   3.2 1.00e+00 1.00e+00f  1
  87  7.9079488e+03 0.00e+00 3.03e+01  -1.0 6.57e-03   3.7 1.00e+00 1.00e+00f  1
  88  7.9062240e+03 0.00e+00 5.34e+01  -1.0 3.69e-02   3.2 1.00e+00 1.00e+00f  1
  89  7.9054078e+03 0.00e+00 5.56e+01  -1.0 1.44e-02   3.6 1.00e+00 1.00e+00f  1
iter    objective    inf_pr   inf_du lg(mu)  ||d||  lg(rg) alpha_du alpha_pr  ls
  90  7.9032940e+03 0.00e+00 3.77e+01  -1.0 4.30e-02   3.1 1.00e+00 1.00e+00f  1
  91  7.9023273e+03 0.00e+00 2.35e+01  -1.0 3.33e-02   2.7 1.00e+00 1.00e+00f  1
  92  7.9015692e+03 0.00e+00 3.15e+01  -1.0 2.18e-02   3.1 1.00e+00 1.00e+00f  1
  93  7.9010520e+03 0.00e+00 3.68e+01  -1.0 1.16e-02   3.5 1.00e+00 1.00e+00f  1
  94  7.8985112e+03 0.00e+00 4.10e+01  -1.0 5.39e-02   3.0 1.00e+00 1.00e+00f  1
  95  7.8939248e+03 0.00e+00 4.78e+01  -1.0 1.29e-01   2.6 1.00e+00 1.00e+00f  1
  96  7.8900325e+03 0.00e+00 2.65e+01  -1.0 8.89e-02   3.0 1.00e+00 1.00e+00f  1
  97  7.8783663e+03 0.00e+00 4.03e+01  -1.0 4.49e-01   2.5 1.00e+00 1.00e+00f  1
  98  7.8771710e+03 0.00e+00 2.04e+01  -1.0 4.49e-02   2.0 1.00e+00 1.00e+00f  1
  99  7.8769478e+03 0.00e+00 2.35e+01  -1.0 9.84e-03   3.4 1.00e+00 1.00e+00f  1
iter    objective    inf_pr   inf_du lg(mu)  ||d||  lg(rg) alpha_du alpha_pr  ls
 100  7.8717159e+03 0.00e+00 3.58e+01  -1.0 1.13e-01   2.9 1.00e+00 1.00e+00f  1
 101  7.8690603e+03 0.00e+00 3.97e+01  -1.0 6.67e-02   2.4 1.00e+00 1.00e+00f  1
 102  7.8498161e+03 0.00e+00 3.96e+01  -1.0 4.85e-01   1.9 1.00e+00 1.00e+00f  1
 103  7.7912285e+03 0.00e+00 3.93e+01  -1.0 1.48e+00   1.4 1.00e+00 1.00e+00f  1
 104  7.7830872e+03 0.00e+00 3.76e+01  -1.0 2.69e-01   1.0 1.00e+00 1.00e+00f  1
 105  7.7806239e+03 0.00e+00 5.65e+01  -1.0 4.68e-02   3.2 1.00e+00 1.00e+00f  1
 106  7.7755369e+03 0.00e+00 3.95e+01  -1.0 1.20e-01   2.7 1.00e+00 1.00e+00f  1
 107  7.7660765e+03 0.00e+00 3.92e+01  -1.0 2.40e-01   2.2 1.00e+00 1.00e+00f  1
 108  7.7329423e+03 0.00e+00 3.80e+01  -1.0 8.44e-01   1.8 1.00e+00 1.00e+00f  1
 109  7.7313620e+03 0.00e+00 4.03e+01  -1.0 3.60e-02   3.1 1.00e+00 1.00e+00f  1
iter    objective    inf_pr   inf_du lg(mu)  ||d||  lg(rg) alpha_du alpha_pr  ls
 110  7.7272838e+03 0.00e+00 3.61e+01  -1.0 1.07e-01   2.6 1.00e+00 1.00e+00f  1
 111  7.7255581e+03 0.00e+00 3.96e+01  -1.0 4.00e-02   3.0 1.00e+00 1.00e+00f  1
 112  7.7211432e+03 0.00e+00 3.84e+01  -1.0 1.13e-01   2.6 1.00e+00 1.00e+00f  1
 113  7.6980972e+03 0.00e+00 3.78e+01  -1.0 5.85e-01   2.1 1.00e+00 1.00e+00f  1
 114  7.6946819e+03 0.00e+00 3.96e+01  -1.0 8.73e-02   2.5 1.00e+00 1.00e+00f  1
 115  7.6774947e+03 0.00e+00 4.03e+01  -1.0 4.55e-01   2.0 1.00e+00 1.00e+00f  1
 116  7.6763302e+03 0.00e+00 4.79e+01  -1.0 2.25e-02   3.4 1.00e+00 1.00e+00f  1
 117  7.6725120e+03 0.00e+00 2.20e+01  -1.0 1.04e-01   2.9 1.00e+00 1.00e+00f  1
 118  7.6721333e+03 0.00e+00 2.88e+01  -1.0 1.30e-02   3.3 1.00e+00 1.00e+00f  1
 119  7.6719192e+03 0.00e+00 3.27e+01  -1.0 5.89e-03   3.7 1.00e+00 1.00e+00f  1
iter    objective    inf_pr   inf_du lg(mu)  ||d||  lg(rg) alpha_du alpha_pr  ls
 120  7.6705565e+03 0.00e+00 4.73e+01  -1.0 2.79e-02   3.3 1.00e+00 1.00e+00f  1
 121  7.6554280e+03 0.00e+00 4.09e+01  -1.0 3.72e-01   2.8 1.00e+00 1.00e+00f  1
 122  7.6541861e+03 0.00e+00 2.04e+01  -1.0 4.56e-02   2.3 1.00e+00 1.00e+00f  1
 123  7.6484732e+03 0.00e+00 3.83e+01  -1.0 2.12e-01   2.7 1.00e+00 1.00e+00f  1
 124  7.6392267e+03 0.00e+00 5.32e+01  -1.0 2.49e-01   2.3 1.00e+00 1.00e+00f  1
 125  7.6384592e+03 0.00e+00 5.25e+01  -1.0 1.41e-02   3.6 1.00e+00 1.00e+00f  1
 126  7.6367475e+03 0.00e+00 3.56e+01  -1.0 3.76e-02   3.1 1.00e+00 1.00e+00f  1
 127  7.6357640e+03 0.00e+00 2.50e+01  -1.0 3.41e-02   2.6 1.00e+00 1.00e+00f  1
 128  7.6346233e+03 0.00e+00 3.63e+01  -1.0 2.81e-02   3.1 1.00e+00 1.00e+00f  1
 129  7.6203388e+03 0.00e+00 5.82e+01  -1.0 3.69e-01   2.6 1.00e+00 1.00e+00f  1
iter    objective    inf_pr   inf_du lg(mu)  ||d||  lg(rg) alpha_du alpha_pr  ls
 130  7.6180461e+03 0.00e+00 2.71e+01  -1.0 5.09e-02   3.0 1.00e+00 1.00e+00f  1
 131  7.6174487e+03 0.00e+00 1.95e+01  -1.0 2.77e-02   2.5 1.00e+00 1.00e+00f  1
 132  7.6167315e+03 0.00e+00 3.29e+01  -1.0 2.64e-02   3.0 1.00e+00 1.00e+00f  1
 133  7.6158796e+03 0.00e+00 4.60e+01  -1.0 1.93e-02   3.4 1.00e+00 1.00e+00f  1
 134  7.6049678e+03 0.00e+00 3.04e+01  -1.0 2.65e-01   2.9 1.00e+00 1.00e+00f  1
 135  7.6043701e+03 0.00e+00 3.44e+01  -1.0 1.55e-02   3.3 1.00e+00 1.00e+00f  1
 136  7.6010805e+03 0.00e+00 3.96e+01  -1.0 7.84e-02   2.9 1.00e+00 1.00e+00f  1
 137  7.5941465e+03 0.00e+00 4.08e+01  -1.0 1.78e-01   2.4 1.00e+00 1.00e+00f  1
 138  7.5927673e+03 0.00e+00 2.13e+01  -1.0 5.38e-02   1.9 1.00e+00 1.00e+00f  1
 139  7.5923544e+03 0.00e+00 3.03e+01  -1.0 1.60e-02   3.2 1.00e+00 1.00e+00f  1
iter    objective    inf_pr   inf_du lg(mu)  ||d||  lg(rg) alpha_du alpha_pr  ls
 140  7.5920847e+03 0.00e+00 3.62e+01  -1.0 7.92e-03   3.7 1.00e+00 1.00e+00f  1
 141  7.5895194e+03 0.00e+00 5.63e+01  -1.0 4.93e-02   3.2 1.00e+00 1.00e+00f  1
 142  7.5851876e+03 0.00e+00 3.84e+01  -1.0 1.07e-01   2.7 1.00e+00 1.00e+00f  1
 143  7.5557656e+03 0.00e+00 2.76e+01  -1.0 7.69e-01   2.2 1.00e+00 1.00e+00f  1
 144  7.5554051e+03 0.00e+00 3.29e+01  -1.0 9.11e-03   3.6 1.00e+00 1.00e+00f  1
 145  7.5527982e+03 0.00e+00 4.17e+01  -1.0 5.24e-02   3.1 1.00e+00 1.00e+00f  1
 146  7.5483540e+03 0.00e+00 5.07e+01  -1.0 1.34e-01   2.6 1.00e+00 1.00e+00f  1
 147  7.5440565e+03 0.00e+00 1.93e+01  -1.0 1.05e-01   3.0 1.00e+00 1.00e+00f  1
 148  7.5439099e+03 0.00e+00 2.11e+01  -1.0 7.18e-03   3.5 1.00e+00 1.00e+00f  1
 149  7.5425488e+03 0.00e+00 4.55e+01  -1.0 3.77e-02   3.0 1.00e+00 1.00e+00f  1
iter    objective    inf_pr   inf_du lg(mu)  ||d||  lg(rg) alpha_du alpha_pr  ls
 150  7.5412681e+03 0.00e+00 5.39e+01  -1.0 2.38e-02   3.4 1.00e+00 1.00e+00f  1
 151  7.5378654e+03 0.00e+00 2.06e+01  -1.0 9.22e-02   2.9 1.00e+00 1.00e+00f  1
 152  7.5376022e+03 0.00e+00 2.52e+01  -1.0 1.06e-02   3.3 1.00e+00 1.00e+00f  1
 153  7.5253549e+03 0.00e+00 2.77e+01  -1.0 3.30e-01   2.9 1.00e+00 1.00e+00f  1
 154  7.5245364e+03 0.00e+00 3.72e+01  -1.0 1.88e-02   3.3 1.00e+00 1.00e+00f  1
 155  7.5187046e+03 0.00e+00 3.87e+01  -1.0 1.38e-01   2.8 1.00e+00 1.00e+00f  1
 156  7.5118279e+03 0.00e+00 3.87e+01  -1.0 1.78e-01   2.3 1.00e+00 1.00e+00f  1
 157  7.4867431e+03 0.00e+00 3.89e+01  -1.0 6.48e-01   1.9 1.00e+00 1.00e+00f  1
 158  7.3569508e+03 0.00e+00 3.48e+01  -1.0 3.37e+00   1.4 1.00e+00 1.00e+00f  1
 159  7.3553274e+03 0.00e+00 3.60e+01  -1.0 4.50e-02   2.7 1.00e+00 1.00e+00f  1
iter    objective    inf_pr   inf_du lg(mu)  ||d||  lg(rg) alpha_du alpha_pr  ls
 160  7.2861591e+03 0.00e+00 3.86e+01  -1.0 1.81e+00   2.2 1.00e+00 1.00e+00f  1
 161  7.1987165e+03 0.00e+00 3.86e+01  -1.0 2.31e+00   1.8 1.00e+00 1.00e+00f  1
 162  7.1851629e+03 0.00e+00 4.75e+01  -1.0 3.59e-01   2.2 1.00e+00 1.00e+00f  1
 163  7.1834043e+03 0.00e+00 1.81e+01  -1.0 5.95e-02   2.6 1.00e+00 1.00e+00f  1
 164  7.1830182e+03 0.00e+00 2.51e+01  -1.0 1.83e-02   3.0 1.00e+00 1.00e+00f  1
 165  7.1827028e+03 0.00e+00 3.26e+01  -1.0 1.08e-02   3.5 1.00e+00 1.00e+00f  1
 166  7.1763964e+03 0.00e+00 3.41e+01  -1.0 1.51e-01   3.0 1.00e+00 1.00e+00f  1
 167  7.1757215e+03 0.00e+00 3.82e+01  -1.0 1.51e-02   3.4 1.00e+00 1.00e+00f  1
 168  7.1733974e+03 0.00e+00 3.90e+01  -1.0 5.56e-02   2.9 1.00e+00 1.00e+00f  1
 169  7.1683510e+03 0.00e+00 5.63e+01  -1.0 1.43e-01   2.5 1.00e+00 1.00e+00f  1
iter    objective    inf_pr   inf_du lg(mu)  ||d||  lg(rg) alpha_du alpha_pr  ls
 170  7.1657324e+03 0.00e+00 1.90e+01  -1.0 6.78e-02   2.9 1.00e+00 1.00e+00f  1
 171  7.1655703e+03 0.00e+00 1.85e+01  -1.0 8.40e-03   3.3 1.00e+00 1.00e+00f  1
 172  7.1641917e+03 0.00e+00 3.69e+01  -1.0 3.54e-02   2.8 1.00e+00 1.00e+00f  1
 173  7.1629347e+03 0.00e+00 4.22e+01  -1.0 2.58e-02   3.3 1.00e+00 1.00e+00f  1
 174  7.1594077e+03 0.00e+00 2.72e+01  -1.0 9.49e-02   2.8 1.00e+00 1.00e+00f  1
 175  7.1586566e+03 0.00e+00 3.35e+01  -1.0 1.95e-02   3.2 1.00e+00 1.00e+00f  1
 176  7.1534052e+03 0.00e+00 2.99e+01  -1.0 1.36e-01   2.7 1.00e+00 1.00e+00f  1
 177  7.1524944e+03 0.00e+00 3.55e+01  -1.0 2.36e-02   3.2 1.00e+00 1.00e+00f  1
 178  7.1479454e+03 0.00e+00 3.63e+01  -1.0 1.17e-01   2.7 1.00e+00 1.00e+00f  1
 179  7.1320157e+03 0.00e+00 4.62e+01  -1.0 4.21e-01   2.2 1.00e+00 1.00e+00f  1
iter    objective    inf_pr   inf_du lg(mu)  ||d||  lg(rg) alpha_du alpha_pr  ls
 180  7.1267008e+03 0.00e+00 4.06e+01  -1.0 1.41e-01   2.6 1.00e+00 1.00e+00f  1
 181  7.1252402e+03 0.00e+00 3.88e+01  -1.0 3.65e-02   3.1 1.00e+00 1.00e+00f  1
 182  7.1227021e+03 0.00e+00 3.51e+01  -1.0 8.06e-02   2.6 1.00e+00 1.00e+00f  1
 183  7.1198955e+03 0.00e+00 3.91e+01  -1.0 6.14e-02   3.0 1.00e+00 1.00e+00f  1
 184  7.1159175e+03 0.00e+00 4.99e+01  -1.0 1.23e-01   2.5 1.00e+00 1.00e+00f  1
 185  7.1114319e+03 0.00e+00 2.87e+01  -1.0 1.24e-01   3.0 1.00e+00 1.00e+00f  1
 186  7.1107883e+03 0.00e+00 4.07e+01  -1.0 1.67e-02   3.4 1.00e+00 1.00e+00f  1
 187  7.0953280e+03 0.00e+00 3.87e+01  -1.0 3.87e-01   2.9 1.00e+00 1.00e+00f  1
 188  7.0943750e+03 0.00e+00 1.80e+01  -1.0 3.63e-02   2.4 1.00e+00 1.00e+00f  1
 189  7.0939772e+03 0.00e+00 2.20e+01  -1.0 2.11e-02   2.9 1.00e+00 1.00e+00f  1
iter    objective    inf_pr   inf_du lg(mu)  ||d||  lg(rg) alpha_du alpha_pr  ls
 190  7.0935589e+03 0.00e+00 3.23e+01  -1.0 1.56e-02   3.3 1.00e+00 1.00e+00f  1
 191  7.0932961e+03 0.00e+00 3.82e+01  -1.0 7.46e-03   3.7 1.00e+00 1.00e+00f  1
 192  7.0911194e+03 0.00e+00 5.74e+01  -1.0 4.25e-02   3.2 1.00e+00 1.00e+00f  1
 193  7.0882268e+03 0.00e+00 1.89e+01  -1.0 8.33e-02   2.8 1.00e+00 1.00e+00f  1
 194  7.0878852e+03 0.00e+00 2.62e+01  -1.0 1.53e-02   3.2 1.00e+00 1.00e+00f  1
 195  7.0876563e+03 0.00e+00 3.17e+01  -1.0 7.77e-03   3.6 1.00e+00 1.00e+00f  1
 196  7.0849530e+03 0.00e+00 5.50e+01  -1.0 5.45e-02   3.1 1.00e+00 1.00e+00f  1
 197  7.0803770e+03 0.00e+00 3.76e+01  -1.0 1.14e-01   2.7 1.00e+00 1.00e+00f  1
 198  7.0708729e+03 0.00e+00 3.76e+01  -1.0 2.53e-01   2.2 1.00e+00 1.00e+00f  1
 199  2.7988793e+03 0.00e+00 2.34e+01  -1.0 1.22e+03    -  1.00e+00 5.00e-01f  2
iter    objective    inf_pr   inf_du lg(mu)  ||d||  lg(rg) alpha_du alpha_pr  ls
 200  2.7814059e+03 0.00e+00 9.27e+00  -1.0 7.61e-01   1.7 1.00e+00 1.00e+00f  1
 201  2.7810633e+03 0.00e+00 1.61e+01  -1.0 1.63e-02   3.0 1.00e+00 1.00e+00f  1
 202  2.7808451e+03 0.00e+00 1.82e+01  -1.0 6.53e-03   3.5 1.00e+00 1.00e+00f  1
 203  2.7797116e+03 0.00e+00 2.39e+01  -1.0 3.43e-02   3.0 1.00e+00 1.00e+00f  1
 204  2.7777795e+03 0.00e+00 2.33e+01  -1.0 8.09e-02   2.5 1.00e+00 1.00e+00f  1
 205  2.7715397e+03 0.00e+00 3.63e+01  -1.0 2.68e-01   2.0 1.00e+00 1.00e+00f  1
 206  2.7710418e+03 0.00e+00 3.08e+01  -1.0 1.46e-02   3.3 1.00e+00 1.00e+00f  1
 207  2.7704245e+03 0.00e+00 1.65e+01  -1.0 2.60e-02   2.9 1.00e+00 1.00e+00f  1
 208  2.7698263e+03 0.00e+00 1.91e+01  -1.0 2.83e-02   2.4 1.00e+00 1.00e+00f  1
 209  2.7687093e+03 0.00e+00 2.35e+01  -1.0 4.18e-02   2.8 1.00e+00 1.00e+00f  1
iter    objective    inf_pr   inf_du lg(mu)  ||d||  lg(rg) alpha_du alpha_pr  ls
 210  2.7661943e+03 0.00e+00 2.35e+01  -1.0 1.07e-01   2.3 1.00e+00 1.00e+00f  1
 211  2.7586729e+03 0.00e+00 2.01e+01  -1.0 3.25e-01   1.9 1.00e+00 1.00e+00f  1
 212  2.5169101e+03 0.00e+00 2.27e+01  -1.0 1.03e+01   2.3 1.00e+00 1.00e+00f  1
 213  2.5116413e+03 0.00e+00 2.24e+01  -1.0 2.39e-01   1.8 1.00e+00 1.00e+00f  1
 214  2.4552081e+03 0.00e+00 2.89e+01  -1.0 2.54e+00   1.3 1.00e+00 1.00e+00f  1
 215  2.4524218e+03 0.00e+00 3.51e+01  -1.0 1.49e-01   2.7 1.00e+00 1.00e+00f  1
 216  2.4507225e+03 0.00e+00 3.02e+01  -1.0 4.56e-02   3.1 1.00e+00 1.00e+00f  1
 217  2.4501083e+03 0.00e+00 8.98e+00  -1.0 3.11e-02   2.6 1.00e+00 1.00e+00f  1
 218  2.4495083e+03 0.00e+00 2.07e+01  -1.0 8.27e-02   2.1 1.00e+00 1.00e+00f  1
 219  2.4478391e+03 0.00e+00 2.39e+01  -1.0 7.47e-02   2.6 1.00e+00 1.00e+00f  1
iter    objective    inf_pr   inf_du lg(mu)  ||d||  lg(rg) alpha_du alpha_pr  ls
 220  2.3995763e+03 0.00e+00 2.23e+01  -1.0 2.17e+00   2.1 1.00e+00 1.00e+00f  1
 221  2.3320848e+03 0.00e+00 1.87e+01  -1.0 3.10e+00   1.6 1.00e+00 1.00e+00f  1
 222  2.3313811e+03 0.00e+00 2.16e+01  -1.0 2.77e-02   2.9 1.00e+00 1.00e+00f  1
 223  2.3296891e+03 0.00e+00 2.16e+01  -1.0 7.76e-02   2.5 1.00e+00 1.00e+00f  1
 224  2.3249071e+03 0.00e+00 2.16e+01  -1.0 2.22e-01   2.0 1.00e+00 1.00e+00f  1
 225  2.3104834e+03 0.00e+00 2.17e+01  -1.0 6.70e-01   1.5 1.00e+00 1.00e+00f  1
 226  2.3046759e+03 0.00e+00 2.14e+01  -1.0 2.87e-01   1.9 1.00e+00 1.00e+00f  1
 227  2.3042007e+03 0.00e+00 2.34e+01  -1.0 1.38e-02   3.3 1.00e+00 1.00e+00f  1
 228  2.3030566e+03 0.00e+00 2.27e+01  -1.0 4.58e-02   2.8 1.00e+00 1.00e+00f  1
 229  2.3010281e+03 0.00e+00 3.99e+01  -1.0 1.27e-01   2.3 1.00e+00 1.00e+00f  1
iter    objective    inf_pr   inf_du lg(mu)  ||d||  lg(rg) alpha_du alpha_pr  ls
 230  2.3006238e+03 0.00e+00 4.14e+01  -1.0 9.87e-03   3.6 1.00e+00 1.00e+00f  1
 231  2.2995590e+03 0.00e+00 2.97e+01  -1.0 2.85e-02   3.2 1.00e+00 1.00e+00f  1
 232  2.2990630e+03 0.00e+00 1.09e+01  -1.0 2.45e-02   2.7 1.00e+00 1.00e+00f  1
 233  2.2989603e+03 0.00e+00 4.35e+00  -1.0 1.31e-02   2.2 1.00e+00 1.00e+00f  1
 234  2.2988677e+03 0.00e+00 6.69e+00  -1.0 1.35e-02   2.6 1.00e+00 1.00e+00f  1
 235  2.2987430e+03 0.00e+00 1.06e+01  -1.0 9.24e-03   3.1 1.00e+00 1.00e+00f  1
 236  2.2986657e+03 0.00e+00 1.23e+01  -1.0 4.05e-03   3.5 1.00e+00 1.00e+00f  1
 237  2.2980514e+03 0.00e+00 1.95e+01  -1.0 2.11e-02   3.0 1.00e+00 1.00e+00f  1
 238  2.2953274e+03 0.00e+00 1.86e+01  -1.0 1.21e-01   2.5 1.00e+00 1.00e+00f  1
 239  2.2948544e+03 0.00e+00 2.05e+01  -1.0 2.18e-02   3.0 1.00e+00 1.00e+00f  1
iter    objective    inf_pr   inf_du lg(mu)  ||d||  lg(rg) alpha_du alpha_pr  ls
 240  2.2930026e+03 0.00e+00 2.24e+01  -1.0 8.57e-02   2.5 1.00e+00 1.00e+00f  1
 241  2.2802491e+03 0.00e+00 3.58e+01  -1.0 6.16e-01   2.0 1.00e+00 1.00e+00f  1
 242  2.2797187e+03 0.00e+00 3.10e+01  -1.0 1.56e-02   3.3 1.00e+00 1.00e+00f  1
 243  2.2790624e+03 0.00e+00 1.46e+01  -1.0 2.81e-02   2.9 1.00e+00 1.00e+00f  1
 244  2.2788362e+03 0.00e+00 9.16e+00  -1.0 1.83e-02   2.4 1.00e+00 1.00e+00f  1
 245  2.2784171e+03 0.00e+00 1.64e+01  -1.0 2.09e-02   2.8 1.00e+00 1.00e+00f  1
 246  2.2781160e+03 0.00e+00 1.94e+01  -1.0 1.17e-02   3.2 1.00e+00 1.00e+00f  1
 247  2.2769832e+03 0.00e+00 2.13e+01  -1.0 4.78e-02   2.8 1.00e+00 1.00e+00f  1
 248  2.8020353e+01 0.00e+00 9.39e-01  -1.0 1.89e+03    -  1.00e+00 1.25e-01f  4
 249  2.8010127e+01 0.00e+00 1.22e+00  -1.7 6.39e-03   2.3 1.00e+00 1.00e+00f  1
iter    objective    inf_pr   inf_du lg(mu)  ||d||  lg(rg) alpha_du alpha_pr  ls
 250  2.7947723e+01 0.00e+00 1.47e+01  -1.7 1.47e-01   1.8 1.00e+00 1.00e+00f  1
 251  2.7803695e+01 0.00e+00 1.10e+01  -1.7 8.67e-03   3.1 1.00e+00 1.00e+00f  1
 252  2.7680996e+01 0.00e+00 5.13e+00  -1.7 1.20e-02   2.6 1.00e+00 1.00e+00f  1
 253  2.7619523e+01 0.00e+00 2.53e+00  -1.7 1.67e-02   2.2 1.00e+00 1.00e+00f  1
 254  2.7544677e+01 0.00e+00 1.36e+00  -1.7 7.32e-02   1.7 1.00e+00 5.00e-01f  2
 255  2.7490916e+01 0.00e+00 2.22e+00  -1.7 1.84e-02   2.1 1.00e+00 1.00e+00f  1
 256  2.7378765e+01 0.00e+00 4.04e+00  -1.7 5.46e-02   1.6 1.00e+00 1.00e+00f  1
 257  2.6802890e+01 0.00e+00 2.17e+00  -1.7 2.54e-01   1.2 1.00e+00 1.00e+00f  1
 258  2.6734317e+01 0.00e+00 1.09e+01  -1.7 7.18e-02   1.6 1.00e+00 1.00e+00f  1
 259  2.6660219e+01 0.00e+00 5.99e+00  -1.7 7.52e-03   2.9 1.00e+00 1.00e+00f  1
iter    objective    inf_pr   inf_du lg(mu)  ||d||  lg(rg) alpha_du alpha_pr  ls
 260  2.6617336e+01 0.00e+00 2.35e+00  -1.7 8.42e-03   2.4 1.00e+00 1.00e+00f  1
 261  2.6556681e+01 0.00e+00 2.32e+00  -1.7 2.57e-02   2.0 1.00e+00 1.00e+00f  1
 262  2.6457679e+01 0.00e+00 2.87e+00  -1.7 1.08e-01   1.5 1.00e+00 5.00e-01f  2
 263  2.6446133e+01 0.00e+00 2.43e+00  -1.7 3.85e-03   2.8 1.00e+00 1.00e+00f  1
 264  2.6406940e+01 0.00e+00 2.18e+00  -1.7 1.23e-02   2.3 1.00e+00 1.00e+00f  1
 265  2.6339596e+01 0.00e+00 2.21e+00  -1.7 3.08e-02   1.9 1.00e+00 1.00e+00f  1
 266  3.8651923e+00 0.00e+00 7.26e+00  -1.7 5.64e+01    -  1.00e+00 5.00e-01f  2
 267  3.8111041e+00 0.00e+00 6.18e-01  -1.7 1.29e-02   2.3 1.00e+00 1.00e+00f  1
 268  3.8052121e+00 0.00e+00 6.20e-01  -1.7 9.51e-03   1.8 1.00e+00 1.00e+00f  1
 269  3.7874520e+00 0.00e+00 6.21e-01  -1.7 2.86e-02   1.3 1.00e+00 1.00e+00f  1
iter    objective    inf_pr   inf_du lg(mu)  ||d||  lg(rg) alpha_du alpha_pr  ls
 270  3.7335452e+00 0.00e+00 5.79e-01  -1.7 8.71e-02   0.9 1.00e+00 1.00e+00f  1
 271  3.7149385e+00 0.00e+00 1.63e+00  -1.7 3.43e-02   1.3 1.00e+00 1.00e+00f  1
 272  3.6480829e+00 0.00e+00 5.70e-01  -1.7 1.07e-01   0.8 1.00e+00 1.00e+00f  1
 273  3.6299561e+00 0.00e+00 1.00e+00  -1.7 3.37e-02   1.2 1.00e+00 1.00e+00f  1
 274  3.5630868e+00 0.00e+00 6.12e-01  -1.7 1.10e-01   0.8 1.00e+00 1.00e+00f  1
 275  3.5120764e+00 0.00e+00 4.84e+00  -1.7 2.67e-01   0.3 1.00e+00 5.00e-01f  2
 276  3.4705051e+00 0.00e+00 2.99e+00  -1.7 1.08e-02   2.5 1.00e+00 1.00e+00f  1
 277  3.4495467e+00 0.00e+00 2.74e+00  -1.7 1.79e-02   2.0 1.00e+00 1.00e+00f  1
 278  3.4353523e+00 0.00e+00 5.27e+00  -1.7 4.64e-02   1.6 1.00e+00 1.00e+00f  1
 279  3.4136488e+00 0.00e+00 7.70e-01  -1.7 6.28e-03   2.0 1.00e+00 1.00e+00f  1
iter    objective    inf_pr   inf_du lg(mu)  ||d||  lg(rg) alpha_du alpha_pr  ls
 280  2.4089011e+00 0.00e+00 2.00e+01  -1.7 7.83e+00    -  1.00e+00 1.00e+00f  1
 281  2.2414696e+00 0.00e+00 1.72e+01  -1.7 8.90e-03   3.3 1.00e+00 1.00e+00f  1
 282  2.0455851e+00 0.00e+00 7.87e+00  -1.7 1.52e-02   2.8 1.00e+00 1.00e+00f  1
 283  2.0067581e+00 0.00e+00 1.59e+00  -1.7 8.11e-03   2.4 1.00e+00 1.00e+00f  1
 284  2.0045933e+00 0.00e+00 2.12e-01  -1.7 2.73e-03   1.9 1.00e+00 1.00e+00f  1
 285  2.0027971e+00 0.00e+00 2.13e-01  -1.7 8.36e-03   1.4 1.00e+00 1.00e+00f  1
 286  1.9972580e+00 0.00e+00 2.17e-01  -1.7 2.56e-02   0.9 1.00e+00 1.00e+00f  1
 287  1.9880740e+00 0.00e+00 4.19e+00  -1.7 1.04e-01   0.5 1.00e+00 1.00e+00f  1
 288  1.9750440e+00 0.00e+00 1.96e-01  -1.7 6.30e-03   1.8 1.00e+00 1.00e+00f  1
 289  1.9731217e+00 0.00e+00 1.97e-01  -2.5 9.79e-03   1.3 1.00e+00 1.00e+00f  1
iter    objective    inf_pr   inf_du lg(mu)  ||d||  lg(rg) alpha_du alpha_pr  ls
 290  1.9672443e+00 0.00e+00 1.98e-01  -2.5 2.97e-02   0.8 1.00e+00 1.00e+00f  1
 291  1.9512266e+00 0.00e+00 2.25e+00  -2.5 1.05e-01   0.3 1.00e+00 1.00e+00f  1
 292  1.9466281e+00 0.00e+00 1.80e-01  -2.5 5.44e-03   1.7 1.00e+00 1.00e+00f  1
 293  1.9445791e+00 0.00e+00 1.81e-01  -2.5 1.14e-02   1.2 1.00e+00 1.00e+00f  1
 294  1.9383154e+00 0.00e+00 2.40e-01  -2.5 3.45e-02   0.7 1.00e+00 1.00e+00f  1
 295  1.9220084e+00 0.00e+00 2.54e+00  -2.5 1.19e-01   0.2 1.00e+00 1.00e+00f  1
 296  1.9170439e+00 0.00e+00 1.65e-01  -2.5 5.41e-03   1.6 1.00e+00 1.00e+00f  1
 297  1.9148447e+00 0.00e+00 1.66e-01  -2.5 1.33e-02   1.1 1.00e+00 1.00e+00f  1
 298  1.9078858e+00 0.00e+00 4.09e-01  -2.5 4.09e-02   0.6 1.00e+00 1.00e+00f  1
 299  1.9037435e+00 0.00e+00 2.74e+00  -2.5 6.10e-01   0.1 1.00e+00 2.50e-01f  3
iter    objective    inf_pr   inf_du lg(mu)  ||d||  lg(rg) alpha_du alpha_pr  ls
 300  1.8891723e+00 0.00e+00 1.32e+00  -2.5 4.91e-03   2.4 1.00e+00 1.00e+00f  1
 301  1.8789941e+00 0.00e+00 7.81e-01  -2.5 1.25e-02   1.9 1.00e+00 1.00e+00f  1
 302  1.8761475e+00 0.00e+00 7.02e-01  -2.5 3.50e-03   2.3 1.00e+00 1.00e+00f  1
 303  1.8659661e+00 0.00e+00 8.35e-01  -2.5 1.36e-02   1.8 1.00e+00 1.00e+00f  1
 304  1.8548998e+00 0.00e+00 3.32e+00  -2.5 6.00e-02   1.4 1.00e+00 5.00e-01f  2
 305  1.8390685e+00 0.00e+00 5.88e-01  -2.5 1.32e-02   1.8 1.00e+00 1.00e+00f  1
 306  1.8221712e+00 0.00e+00 5.87e-01  -2.5 2.85e-02   1.3 1.00e+00 1.00e+00f  1
 307  1.0856720e-01 0.00e+00 2.14e+00  -2.5 5.99e+00    -  1.00e+00 1.00e+00f  1
 308  1.0514678e-01 0.00e+00 2.23e+00  -2.5 1.54e-02   1.7 1.00e+00 1.00e+00f  1
 309  1.0092391e-01 0.00e+00 8.70e-01  -2.5 1.22e-02   1.3 1.00e+00 1.00e+00f  1
iter    objective    inf_pr   inf_du lg(mu)  ||d||  lg(rg) alpha_du alpha_pr  ls
 310  1.0035385e-01 0.00e+00 3.77e-02  -2.5 3.21e-03   0.8 1.00e+00 1.00e+00f  1
 311  9.9928694e-02 0.00e+00 1.41e-01  -2.5 9.94e-02    -  1.00e+00 1.00e+00f  1
 312  9.9060822e-02 0.00e+00 1.35e-01  -2.5 1.53e-02    -  1.00e+00 5.00e-01f  2
 313  9.7849426e-02 0.00e+00 1.34e-01  -2.5 8.81e-03   1.2 1.00e+00 1.00e+00f  1
 314  9.7685367e-02 0.00e+00 2.08e+00  -2.5 3.14e-02   0.7 1.00e+00 1.00e+00f  1
 315  9.7311471e-02 0.00e+00 3.82e+00  -2.5 4.34e-02   1.2 1.00e+00 1.00e+00f  1
 316  8.7426797e-02 0.00e+00 1.94e-01  -2.5 4.80e-03   1.6 1.00e+00 1.00e+00f  1
 317  1.4799820e-02 0.00e+00 2.34e+00  -2.5 1.75e+00    -  1.00e+00 1.00e+00f  1
 318  9.1189678e-03 0.00e+00 3.04e-01  -2.5 4.27e-03   2.0 1.00e+00 1.00e+00f  1
 319  8.9737193e-03 0.00e+00 4.24e-02  -2.5 1.29e-03   1.5 1.00e+00 1.00e+00f  1
iter    objective    inf_pr   inf_du lg(mu)  ||d||  lg(rg) alpha_du alpha_pr  ls
 320  2.2636307e-08 0.00e+00 6.82e-05  -2.5 4.24e-01    -  1.00e+00 1.00e+00f  1
 321  2.3441283e-09 0.00e+00 2.16e-05  -5.7 6.23e-04    -  1.00e+00 1.00e+00f  1
 322  7.0777369e-13 0.00e+00 3.76e-07  -5.7 2.16e-04    -  1.00e+00 1.00e+00f  1
 323  1.8790745e-23 0.00e+00 1.94e-12  -8.6 3.76e-06    -  1.00e+00 1.00e+00f  1

Number of Iterations....: 323

                                   (scaled)                 (unscaled)
Objective...............:   1.8790744976948345e-23    1.8790744976948345e-23
Dual infeasibility......:   1.9354463860423334e-12    1.9354463860423334e-12
Constraint violation....:   0.0000000000000000e+00    0.0000000000000000e+00
Complementarity.........:   0.0000000000000000e+00    0.0000000000000000e+00
Overall NLP error.......:   1.9354463860423334e-12    1.9354463860423334e-12


Number of objective function evaluations             = 372
Number of objective gradient evaluations             = 324
Number of equality constraint evaluations            = 0
Number of inequality constraint evaluations          = 0
Number of equality constraint Jacobian evaluations   = 0
Number of inequality constraint Jacobian evaluations = 0
Number of Lagrangian Hessian evaluations             = 323
Total CPU secs in IPOPT (w/o function evaluations)   =      0.053
Total CPU secs in NLP function evaluations           =      0.003

EXIT: Optimal Solution Found.

 ** SUBROUTINE CUTEST_csetup: Warning. The problem has no general constraints. 
 ** Other tools may be preferable ** 

************************ CUTEst statistics ************************


 Package used            :  IPOPT
 Problem                 :  HUMPS     
 # variables             =               2
 # constraints           =               0
 # objective functions   =        0.6970000E+03
 # objective gradients   =        0.3250000E+03
 # objective Hessians    =        0.3240000E+03
 # Hessian-vector prdct  =        0.0000000E+00
 # constraints functions =        0.0000000E+00
 # constraints gradients =        0.0000000E+00
 # constraints Hessians  =        0.0000000E+00
 Exit code               =               0
 Final f                 =   0.1879074E-22
 Set up time             =            0.00 seconds
 Solve time              =            0.34 seconds


******************************************************************

System Time =       0.0839999989 s.
